Instance: Data/Instances_txt/inst_60_10_3.txt
SetUpTime: 1.6088290214538574

Gurobi 10.0.1 (mac64[x86]) logging started Di  1 Aug 16:29:28 2023

Set parameter LogFile to value "Output/MILP_RELAXED_inst_60_10_3_2023-08-01_16-28-50.txt"
Set parameter TimeLimit to value 2700

Gurobi 10.0.1 (mac64[x86]) logging started Di  1 Aug 16:29:28 2023

Set parameter LogFile to value "Output/MILP_RELAXED_inst_60_10_3_2023-08-01_16-28-50.txt"
Gurobi Optimizer version 10.0.1 build v10.0.1rc0 (mac64[x86])

CPU model: Intel(R) Core(TM) i5-1038NG7 CPU @ 2.00GHz
Thread count: 4 physical cores, 8 logical processors, using up to 8 threads

Optimize a model with 121 rows, 4112 columns and 15838 nonzeros
Model fingerprint: 0x9becaf1e
Coefficient statistics:
  Matrix range     [1e+00, 1e+00]
  Objective range  [8e+00, 5e+03]
  Bounds range     [1e+00, 1e+00]
  RHS range        [1e+00, 1e+00]
Presolve removed 6 rows and 4 columns
Presolve time: 0.01s
Presolved: 115 rows, 4108 columns, 15552 nonzeros

Iteration    Objective       Primal Inf.    Dual Inf.      Time
       0    5.7440000e+03   6.400000e+01   0.000000e+00      0s
    1187    4.2639667e+04   0.000000e+00   0.000000e+00      0s

Solved in 1187 iterations and 0.05 seconds (0.07 work units)
Optimal objective  4.263966667e+04

User-callback calls 1247, time in user-callback 0.00 sec

=========================

OUTPUT STATISTICS
Relaxed: true
Time since start: 1.7296690940856934
SetUpTime: 1.6088290214538574
Objective value: 42639.66666666667
Number of variables: 4112
Solving time: 0.11978721618652344
